c Random Network
p max    10      20
n         1  s
n        10  t
a       7      10      45
a       3       2      30
a       2       4      41
a       1       6      34
a       7       4      48
a       4       3      36
a      10       6       8
a       5       9       8
a      10       7      25
a       8       1      18
a       8       5      47
a       4       1      18
a       6       2      12
a       5       1       4
a       4       2      25
a       7       1       1
a       5      10      17
a       1       7      29
a       3       7      18
a       1       4       1
